(declare-fun e () String)
(declare-fun c () String)
(declare-fun g () String)
(declare-fun b () String)
(declare-fun d () String)
(declare-fun f () String)
(declare-fun h () String)
(assert (= (str.++ h e d b) (str.++ "f" e)))
(assert (= (str.++ "af" g h "h") (str.++ c "fg" d "c")))
(assert (= (str.++ "gh" f "ed") (str.++ "g" b "hb" c)))

(check-sat)
